24

1 19 11
2 21 23
3 22 22
4 13 10
5 1 17
6 9 20
7 7 11
8 10 24
9 4 19
10 11 8
11 11 14
12 12 20
13 6 22
14 15 16
15 17 13
16 8 5
17 13 4
18 11 22
19 24 23
20 10 9
21 8 22
22 18 6
23 8 20
24 9 10

304
